
Gurobi 8.1.1 (linux64, Python) logging started qua 09 set 2020 10:24:28 WEST


--------------------------------------------
Warning: your license will expire in 9 days
--------------------------------------------

Academic license - for non-commercial use only

Gurobi 8.1.1 (linux64, Python) logging started qua 09 set 2020 14:13:13 WEST


--------------------------------------------
Warning: your license will expire in 9 days
--------------------------------------------

Academic license - for non-commercial use only

Gurobi 8.1.1 (linux64, Python) logging started qua 09 set 2020 14:22:00 WEST


--------------------------------------------
Warning: your license will expire in 9 days
--------------------------------------------

Academic license - for non-commercial use only

Gurobi 8.1.1 (linux64, Python) logging started qua 09 set 2020 14:24:03 WEST


--------------------------------------------
Warning: your license will expire in 9 days
--------------------------------------------

Academic license - for non-commercial use only

Gurobi 8.1.1 (linux64, Python) logging started qua 09 set 2020 14:29:14 WEST


--------------------------------------------
Warning: your license will expire in 9 days
--------------------------------------------

Academic license - for non-commercial use only

Gurobi 8.1.1 (linux64, Python) logging started qua 09 set 2020 14:31:41 WEST


--------------------------------------------
Warning: your license will expire in 9 days
--------------------------------------------

Academic license - for non-commercial use only

Gurobi 8.1.1 (linux64, Python) logging started qua 09 set 2020 14:34:39 WEST


--------------------------------------------
Warning: your license will expire in 9 days
--------------------------------------------

Academic license - for non-commercial use only

Gurobi 8.1.1 (linux64, Python) logging started qua 09 set 2020 14:40:51 WEST


--------------------------------------------
Warning: your license will expire in 9 days
--------------------------------------------

Academic license - for non-commercial use only

Gurobi 8.1.1 (linux64, Python) logging started qua 09 set 2020 14:43:13 WEST


--------------------------------------------
Warning: your license will expire in 9 days
--------------------------------------------

Academic license - for non-commercial use only

Gurobi 8.1.1 (linux64, Python) logging started qua 09 set 2020 14:44:32 WEST


--------------------------------------------
Warning: your license will expire in 9 days
--------------------------------------------

Academic license - for non-commercial use only

Gurobi 8.1.1 (linux64, Python) logging started qua 09 set 2020 14:45:18 WEST


--------------------------------------------
Warning: your license will expire in 9 days
--------------------------------------------

Academic license - for non-commercial use only

Gurobi 8.1.1 (linux64, Python) logging started qua 09 set 2020 14:46:27 WEST


--------------------------------------------
Warning: your license will expire in 9 days
--------------------------------------------

Academic license - for non-commercial use only

Gurobi 8.1.1 (linux64, Python) logging started qua 09 set 2020 14:49:34 WEST


--------------------------------------------
Warning: your license will expire in 9 days
--------------------------------------------

Academic license - for non-commercial use only

Gurobi 8.1.1 (linux64, Python) logging started qua 09 set 2020 14:54:47 WEST


--------------------------------------------
Warning: your license will expire in 9 days
--------------------------------------------

Academic license - for non-commercial use only

Gurobi 8.1.1 (linux64, Python) logging started qua 09 set 2020 16:22:49 WEST


--------------------------------------------
Warning: your license will expire in 9 days
--------------------------------------------

Academic license - for non-commercial use only

Gurobi 8.1.1 (linux64, Python) logging started qua 09 set 2020 16:25:18 WEST


--------------------------------------------
Warning: your license will expire in 9 days
--------------------------------------------

Academic license - for non-commercial use only

Gurobi 8.1.1 (linux64, Python) logging started qua 09 set 2020 16:26:33 WEST


--------------------------------------------
Warning: your license will expire in 9 days
--------------------------------------------

Academic license - for non-commercial use only

Gurobi 8.1.1 (linux64, Python) logging started qua 09 set 2020 16:30:07 WEST


--------------------------------------------
Warning: your license will expire in 9 days
--------------------------------------------

Academic license - for non-commercial use only

Gurobi 8.1.1 (linux64, Python) logging started qua 09 set 2020 16:34:09 WEST


--------------------------------------------
Warning: your license will expire in 9 days
--------------------------------------------

Academic license - for non-commercial use only

Gurobi 8.1.1 (linux64, Python) logging started qua 09 set 2020 16:42:10 WEST


--------------------------------------------
Warning: your license will expire in 9 days
--------------------------------------------

Academic license - for non-commercial use only

Gurobi 8.1.1 (linux64, Python) logging started qua 09 set 2020 16:44:07 WEST


--------------------------------------------
Warning: your license will expire in 9 days
--------------------------------------------

Academic license - for non-commercial use only

Gurobi 8.1.1 (linux64, Python) logging started qua 09 set 2020 16:47:35 WEST


--------------------------------------------
Warning: your license will expire in 9 days
--------------------------------------------

Academic license - for non-commercial use only

Gurobi 8.1.1 (linux64, Python) logging started qua 09 set 2020 16:49:45 WEST


--------------------------------------------
Warning: your license will expire in 9 days
--------------------------------------------

Academic license - for non-commercial use only

Gurobi 8.1.1 (linux64, Python) logging started qua 09 set 2020 16:51:44 WEST


--------------------------------------------
Warning: your license will expire in 9 days
--------------------------------------------

Academic license - for non-commercial use only

Gurobi 8.1.1 (linux64, Python) logging started qua 09 set 2020 16:54:26 WEST


--------------------------------------------
Warning: your license will expire in 9 days
--------------------------------------------

Academic license - for non-commercial use only

Gurobi 8.1.1 (linux64, Python) logging started qua 09 set 2020 17:02:11 WEST


--------------------------------------------
Warning: your license will expire in 9 days
--------------------------------------------

Academic license - for non-commercial use only

Gurobi 8.1.1 (linux64, Python) logging started qua 09 set 2020 17:05:38 WEST


--------------------------------------------
Warning: your license will expire in 9 days
--------------------------------------------

Academic license - for non-commercial use only

Gurobi 8.1.1 (linux64, Python) logging started qua 09 set 2020 17:08:20 WEST


--------------------------------------------
Warning: your license will expire in 9 days
--------------------------------------------

Academic license - for non-commercial use only

Gurobi 8.1.1 (linux64, Python) logging started qua 09 set 2020 17:13:33 WEST


--------------------------------------------
Warning: your license will expire in 9 days
--------------------------------------------

Academic license - for non-commercial use only

Gurobi 8.1.1 (linux64, Python) logging started qua 09 set 2020 17:20:08 WEST


--------------------------------------------
Warning: your license will expire in 9 days
--------------------------------------------

Academic license - for non-commercial use only

Gurobi 8.1.1 (linux64, Python) logging started qua 09 set 2020 17:23:13 WEST


--------------------------------------------
Warning: your license will expire in 9 days
--------------------------------------------

Academic license - for non-commercial use only

Gurobi 8.1.1 (linux64, Python) logging started qua 09 set 2020 17:24:23 WEST


--------------------------------------------
Warning: your license will expire in 9 days
--------------------------------------------

Academic license - for non-commercial use only

Gurobi 8.1.1 (linux64, Python) logging started qua 09 set 2020 17:26:24 WEST


--------------------------------------------
Warning: your license will expire in 9 days
--------------------------------------------

Academic license - for non-commercial use only

Gurobi 8.1.1 (linux64, Python) logging started qua 09 set 2020 17:29:41 WEST


--------------------------------------------
Warning: your license will expire in 9 days
--------------------------------------------

Academic license - for non-commercial use only

Gurobi 8.1.1 (linux64, Python) logging started qua 09 set 2020 17:31:30 WEST


--------------------------------------------
Warning: your license will expire in 9 days
--------------------------------------------

Academic license - for non-commercial use only

Gurobi 8.1.1 (linux64, Python) logging started qua 09 set 2020 17:35:16 WEST


--------------------------------------------
Warning: your license will expire in 9 days
--------------------------------------------

Academic license - for non-commercial use only

Gurobi 8.1.1 (linux64, Python) logging started qua 09 set 2020 17:36:40 WEST


--------------------------------------------
Warning: your license will expire in 9 days
--------------------------------------------

Academic license - for non-commercial use only

Gurobi 8.1.1 (linux64, Python) logging started qua 09 set 2020 17:40:37 WEST


--------------------------------------------
Warning: your license will expire in 9 days
--------------------------------------------

Academic license - for non-commercial use only

Gurobi 8.1.1 (linux64, Python) logging started qua 09 set 2020 17:41:57 WEST


--------------------------------------------
Warning: your license will expire in 9 days
--------------------------------------------

Academic license - for non-commercial use only

Gurobi 8.1.1 (linux64, Python) logging started qua 09 set 2020 17:43:09 WEST


--------------------------------------------
Warning: your license will expire in 9 days
--------------------------------------------

Academic license - for non-commercial use only

Gurobi 8.1.1 (linux64, Python) logging started qua 09 set 2020 17:45:56 WEST


--------------------------------------------
Warning: your license will expire in 9 days
--------------------------------------------

Academic license - for non-commercial use only

Gurobi 8.1.1 (linux64, Python) logging started qua 09 set 2020 17:48:19 WEST


--------------------------------------------
Warning: your license will expire in 9 days
--------------------------------------------

Academic license - for non-commercial use only

Gurobi 8.1.1 (linux64, Python) logging started qua 09 set 2020 17:55:00 WEST


--------------------------------------------
Warning: your license will expire in 9 days
--------------------------------------------

Academic license - for non-commercial use only

Gurobi 8.1.1 (linux64, Python) logging started qua 09 set 2020 17:56:59 WEST


--------------------------------------------
Warning: your license will expire in 9 days
--------------------------------------------

Academic license - for non-commercial use only

Gurobi 8.1.1 (linux64, Python) logging started qua 09 set 2020 17:59:46 WEST


--------------------------------------------
Warning: your license will expire in 9 days
--------------------------------------------

Academic license - for non-commercial use only

Gurobi 8.1.1 (linux64, Python) logging started qua 09 set 2020 18:01:33 WEST


--------------------------------------------
Warning: your license will expire in 9 days
--------------------------------------------

Academic license - for non-commercial use only
